(declare-const a Real)
(declare-const b Real)
(declare-const c Real)
(assert (= (* a b c) 1))
(assert (> a 0))
(assert (> b 0))
(assert (> c 0))
(assert (not (<= (+ (* 1109952 (pow a 4)) (* 1109952 (pow b 4)) (* (pow (* (pow a (* 133476864 a)) (pow b (* 172995072 b))) (pow (+ (* 44492288 a) (* 57665024 b)) -1)) (+ (* -57665024 b) (* -44492288 a))) (* -113246208 (pow a (pow 3 -1)) (pow b (/ 11 3))) (* -56623104 (pow a (/ 10 3)) (pow b (/ 2 3))) (* 6659712 (pow a 2) (pow b 2)) (* 61777664 b (pow a 3)) (* 201369344 a (pow b 3))) 0)))
(check-sat)
(get-model)
(exit)